p cnf 22 35
-1 -2 -3 -6 0
-2 -3 -6 0
1 12 0
-1 -12 0
2 13 0
-2 -13 0
3 14 0
-3 -14 0
4 15 0
-4 -15 0
5 16 0
-5 -16 0
6 17 0
-6 -17 0
7 18 0
-7 -18 0
8 19 0
-8 -19 0
9 20 0
-9 -20 0
10 21 0
-10 -21 0
11 22 0
-11 -22 0
-12 0
-13 0
-14 0
-15 0
-16 0
-17 0
-18 0
-19 0
-20 0
-21 0
-22 0
